instances/in_30_15_7_1.lp
#const n = 30.
#const k = 15.
#const h = 7.
tile(1,11,10).
tile(2,15,7).
tile(3,6,15).
tile(4,5,13).
tile(5,8,13).
tile(6,5,12).
tile(7,14,4).
tile(8,8,14).
tile(9,14,7).
tile(10,3,8).
tile(11,2,10).
tile(12,14,4).
tile(13,5,15).
tile(14,13,13).
tile(15,1,8).
tile(16,9,10).
tile(17,9,3).
tile(18,2,2).
tile(19,10,3).
tile(20,12,5).
tile(21,4,2).
tile(22,11,12).
tile(23,11,3).
tile(24,2,3).
tile(25,11,4).
tile(26,8,6).
tile(27,11,14).
tile(28,3,12).
tile(29,12,14).
tile(30,7,14).
