minizinc/input/in_30_15_7_1.dzn
n = 30;
k = 15;
h = 7;
tiles = array2d(1..n, 1..2,
[ 11,10
, 15,7
, 6,15
, 5,13
, 8,13
, 5,12
, 14,4
, 8,14
, 14,7
, 3,8
, 2,10
, 14,4
, 5,15
, 13,13
, 1,8
, 9,10
, 9,3
, 2,2
, 10,3
, 12,5
, 4,2
, 11,12
, 11,3
, 2,3
, 11,4
, 8,6
, 11,14
, 3,12
, 12,14
, 7,14
]);